\ Model vert
\ LP format - for model browsing. Use MPS format to capture full model detail.
Minimize
  6.1117573806082811e+06 S_coef + 141370.8372468796 Constant + [
   1.32112036e+08 S_coef ^2 ] / 2 
Subject To
Bounds
 -1000 <= S_coef <= 1000
 Constant = 1
End
